c description: tiling of 
c generator: CNFgen (0.9.0)
c copyright: (C) 2012-2020 Massimo Lauria <massimo.lauria@uniroma1.it>
c url: https://massimolauria.net/cnfgen
c
p cnf 20 91
-1 -9 0
-1 -12 0
-1 -16 0
-1 -18 0
-9 -12 0
-9 -16 0
-9 -18 0
-12 -16 0
-12 -18 0
-16 -18 0
1 9 12 16 18 0
-1 -10 0
-1 -16 0
-1 -18 0
-10 -16 0
-10 -18 0
-16 -18 0
1 10 16 18 0
-1 -12 0
-1 -16 0
-12 -16 0
1 12 16 0
-1 -12 0
-1 -16 0
-1 -18 0
-12 -16 0
-12 -18 0
-16 -18 0
1 12 16 18 0
-2 -4 0
2 4 0
-2 -4 0
-2 -11 0
-4 -11 0
2 4 11 0
-3 -5 0
-3 -6 0
-3 -17 0
-5 -6 0
-5 -17 0
-6 -17 0
3 5 6 17 0
-3 -6 0
-3 -15 0
-6 -15 0
3 6 15 0
-3 -8 0
-3 -14 0
-3 -15 0
-8 -14 0
-8 -15 0
-14 -15 0
3 8 14 15 0
-4 -5 0
-4 -11 0
-5 -11 0
4 5 11 0
-5 -6 0
-5 -11 0
-6 -11 0
5 6 11 0
-6 -17 0
6 17 0
-7 -9 0
-7 -13 0
-7 -14 0
-9 -13 0
-9 -14 0
-13 -14 0
7 9 13 14 0
-7 -13 0
7 13 0
-8 -15 0
8 15 0
-9 -13 0
-9 -16 0
-13 -16 0
9 13 16 0
-10 -13 0
-10 -14 0
-10 -15 0
-13 -14 0
-13 -15 0
-14 -15 0
10 13 14 15 0
-10 -14 0
-10 -18 0
-14 -18 0
10 14 18 0
19 0
20 0